200
1000
208
206
205
205
205
204
202
201
201
199
199
198
198
195
194
194
193
192
192
191
191
191
187
187
186
186
184
183
182
182
182
182
180
180
180
177
175
173
173
172
172
171
171
170
170
169
169
165
164
164
163
163
161
157
156
156
155
155
153
152
151
151
151
150
148
145
145
145
144
144
144
144
143
142
142
138
136
136
136
134
133
132
130
130
129
129
129
127
127
126
123
122
120
119
118
117
116
115
112
112
111
111
108
108
108
107
107
107
107
106
106
103
102
101
101
101
99
97
94
93
92
92
91
89
87
85
84
83
82
82
82
81
81
81
78
78
78
78
76
76
74
71
69
68
68
66
66
63
62
61
59
59
58
58
55
55
54
54
53
52
50
48
48
48
47
46
44
44
44
43
43
41
40
38
35
35
35
33
32
31
30
29
29
28
27
26
24
24
23
23
22
22
18
18
18
17
17
15
14
14
